INPUT_HOST=wss://xxxxxxxxxxxxxxxxxxx/api/current
INPUT_USER=xxxxx
INPUT_API-KEY=xxxxxxxxxxxxxxxx
INPUT_API-METHOD=pool.dataset.query
INPUT_PARAMETERS=[[], {"limit": 3, "select": ["name", "pool"]}]
